*SENSE:Minimize
NAME          MODEL
ROWS
 N  OBJ
 L  C0000000
 L  C0000001
 G  C0000002
 G  C0000003
 G  C0000004
 G  C0000005
 G  C0000006
COLUMNS
    MARK      'MARKER'                 'INTORG'
    X0000000  C0000000   1.00000e+00
    X0000000  C0000002   1.00000e+00
    X0000000  OBJ        2.00000e+00
    MARK      'MARKER'                 'INTEND'
    MARK      'MARKER'                 'INTORG'
    X0000001  C0000000   1.00000e+00
    X0000001  C0000003   1.00000e+00
    X0000001  OBJ        4.00000e+00
    MARK      'MARKER'                 'INTEND'
    MARK      'MARKER'                 'INTORG'
    X0000002  C0000000   1.00000e+00
    X0000002  C0000004   1.00000e+00
    X0000002  OBJ        5.00000e+00
    MARK      'MARKER'                 'INTEND'
    MARK      'MARKER'                 'INTORG'
    X0000003  C0000000   1.00000e+00
    X0000003  C0000005   1.00000e+00
    X0000003  OBJ        2.00000e+00
    MARK      'MARKER'                 'INTEND'
    MARK      'MARKER'                 'INTORG'
    X0000004  C0000000   1.00000e+00
    X0000004  C0000006   1.00000e+00
    X0000004  OBJ        1.00000e+00
    MARK      'MARKER'                 'INTEND'
    MARK      'MARKER'                 'INTORG'
    X0000005  C0000001   1.00000e+00
    X0000005  C0000002   1.00000e+00
    X0000005  OBJ        3.00000e+00
    MARK      'MARKER'                 'INTEND'
    MARK      'MARKER'                 'INTORG'
    X0000006  C0000001   1.00000e+00
    X0000006  C0000003   1.00000e+00
    X0000006  OBJ        1.00000e+00
    MARK      'MARKER'                 'INTEND'
    MARK      'MARKER'                 'INTORG'
    X0000007  C0000001   1.00000e+00
    X0000007  C0000004   1.00000e+00
    X0000007  OBJ        3.00000e+00
    MARK      'MARKER'                 'INTEND'
    MARK      'MARKER'                 'INTORG'
    X0000008  C0000001   1.00000e+00
    X0000008  C0000005   1.00000e+00
    X0000008  OBJ        2.00000e+00
    MARK      'MARKER'                 'INTEND'
    MARK      'MARKER'                 'INTORG'
    X0000009  C0000001   1.00000e+00
    X0000009  C0000006   1.00000e+00
    X0000009  OBJ        3.00000e+00
    MARK      'MARKER'                 'INTEND'
RHS
    RHS       C0000000   1.00000e+03
    RHS       C0000001   4.00000e+03
    RHS       C0000002   5.00000e+02
    RHS       C0000003   9.00000e+02
    RHS       C0000004   1.80000e+03
    RHS       C0000005   2.00000e+02
    RHS       C0000006   7.00000e+02
BOUNDS
 LO BND       X0000000   0.00000e+00
 LO BND       X0000001   0.00000e+00
 LO BND       X0000002   0.00000e+00
 LO BND       X0000003   0.00000e+00
 LO BND       X0000004   0.00000e+00
 LO BND       X0000005   0.00000e+00
 LO BND       X0000006   0.00000e+00
 LO BND       X0000007   0.00000e+00
 LO BND       X0000008   0.00000e+00
 LO BND       X0000009   0.00000e+00
ENDATA
